10
1 2 110
1 3 150
1 4 112
1 5 49
1 6 63
1 7 75
1 8 78
1 9 66
1 10 98
2 3 85
2 4 94
2 5 89
2 6 27
2 7 73
2 8 118
2 9 157
2 10 95
3 4 57
3 5 68
3 6 78
3 7 89
3 8 121
3 9 52
3 10 153
4 5 108
4 6 114
4 7 112
4 8 45
4 9 65
4 10 78
5 6 152
5 7 44
5 8 67
5 9 89
5 10 91
6 7 108
6 8 122
6 9 78
6 10 34
7 8 68
7 9 55
7 10 167
8 9 51
8 10 157
9 10 106